120
150
99
71
89
79
31
55
64
51
31
100
50
98
52
53
38
91
100
67
41
58
73
100
80
34
40
59
50
50
100
50
73
50
67
47
43
46
51
28
55
94
50
100
67
32
66
51
59
91
51
75
75
42
98
24
36
100
50
33
30
30
46
31
73
86
54
36
38
75
96
54
51
53
91
59
87
32
20
51
99
80
42
53
47
50
50
100
42
30
50
31
28
100
79
37
66
100
80
50
67
82
59
91
50
34
100
100
50
50
28
54
96
67
36
67
82
98
52
75
75
47
